NAME          DCAP_3_4_2_500_SS444
ROWS
 N  OBJ
 L  CON1
 L  CON2
 L  CON3
 L  CON4
 L  CON5
 L  CON6
 L  CON7
 L  CON8
 L  CON9
 L  CON10
 L  CON11
 L  CON12
 E  CON13
 E  CON14
 E  CON15
 E  CON16
 E  CON17
 E  CON18
 E  CON19
 E  CON20
COLUMNS
    x[1,1]    OBJ       6.180167      CON1      1.000000    
    x[1,1]    CON7      -1.000000     CON8      -1.000000   
    x[1,2]    OBJ       5.039546      CON2      1.000000    
    x[1,2]    CON8      -1.000000   
    x[2,1]    OBJ       6.732585      CON3      1.000000    
    x[2,1]    CON9      -1.000000     CON10     -1.000000   
    x[2,2]    OBJ       7.443064      CON4      1.000000    
    x[2,2]    CON10     -1.000000   
    x[3,1]    OBJ       6.563535      CON5      1.000000    
    x[3,1]    CON11     -1.000000     CON12     -1.000000   
    x[3,2]    OBJ       6.054841      CON6      1.000000    
    x[3,2]    CON12     -1.000000   
    MARKER    'MARKER'                'INTORG'
    u[1,1]    OBJ       48.076654     CON1      -1.000000   
    u[1,2]    OBJ       49.466655     CON2      -1.000000   
    u[2,1]    OBJ       49.996186     CON3      -1.000000   
    u[2,2]    OBJ       32.230043     CON4      -1.000000   
    u[3,1]    OBJ       20.066487     CON5      -1.000000   
    u[3,2]    OBJ       27.484319     CON6      -1.000000   
    y[1,1,1]  OBJ       5.507897      CON7      0.682083    
    y[1,1,1]  CON13     1.000000    
    y[1,1,2]  OBJ       7.861655      CON8      0.667264    
    y[1,1,2]  CON14     1.000000    
    y[1,2,1]  OBJ       6.891735      CON7      0.562317    
    y[1,2,1]  CON15     1.000000    
    y[1,2,2]  OBJ       6.746795      CON8      1.395928    
    y[1,2,2]  CON16     1.000000    
    y[1,3,1]  OBJ       7.300294      CON7      1.467723    
    y[1,3,1]  CON17     1.000000    
    y[1,3,2]  OBJ       8.317845      CON8      0.584423    
    y[1,3,2]  CON18     1.000000    
    y[1,4,1]  OBJ       9.100440      CON7      1.415856    
    y[1,4,1]  CON19     1.000000    
    y[1,4,2]  OBJ       8.789230      CON8      0.996805    
    y[1,4,2]  CON20     1.000000    
    y[2,1,1]  OBJ       7.711541      CON9      0.682083    
    y[2,1,1]  CON13     1.000000    
    y[2,1,2]  OBJ       8.531285      CON10     0.667264    
    y[2,1,2]  CON14     1.000000    
    y[2,2,1]  OBJ       9.184946      CON9      0.562317    
    y[2,2,1]  CON15     1.000000    
    y[2,2,2]  OBJ       5.978209      CON10     1.395928    
    y[2,2,2]  CON16     1.000000    
    y[2,3,1]  OBJ       5.204058      CON9      1.467723    
    y[2,3,1]  CON17     1.000000    
    y[2,3,2]  OBJ       5.649429      CON10     0.584423    
    y[2,3,2]  CON18     1.000000    
    y[2,4,1]  OBJ       7.155367      CON9      1.415856    
    y[2,4,1]  CON19     1.000000    
    y[2,4,2]  OBJ       5.582377      CON10     0.996805    
    y[2,4,2]  CON20     1.000000    
    y[3,1,1]  OBJ       8.664229      CON11     0.682083    
    y[3,1,1]  CON13     1.000000    
    y[3,1,2]  OBJ       7.317763      CON12     0.667264    
    y[3,1,2]  CON14     1.000000    
    y[3,2,1]  OBJ       8.850356      CON11     0.562317    
    y[3,2,1]  CON15     1.000000    
    y[3,2,2]  OBJ       9.063330      CON12     1.395928    
    y[3,2,2]  CON16     1.000000    
    y[3,3,1]  OBJ       7.457805      CON11     1.467723    
    y[3,3,1]  CON17     1.000000    
    y[3,3,2]  OBJ       5.766801      CON12     0.584423    
    y[3,3,2]  CON18     1.000000    
    y[3,4,1]  OBJ       5.998209      CON11     1.415856    
    y[3,4,1]  CON19     1.000000    
    y[3,4,2]  OBJ       8.667254      CON12     0.996805    
    y[3,4,2]  CON20     1.000000    
    z[1,1]    OBJ       987.535858    CON13     1.000000    
    z[1,2]    OBJ       985.543846    CON14     1.000000    
    z[2,1]    OBJ       593.026670    CON15     1.000000    
    z[2,2]    OBJ       672.928693    CON16     1.000000    
    z[3,1]    OBJ       753.677223    CON17     1.000000    
    z[3,2]    OBJ       912.134098    CON18     1.000000    
    z[4,1]    OBJ       976.583497    CON19     1.000000    
    z[4,2]    OBJ       559.204942    CON20     1.000000    
    MARKER    'MARKER'                 'INTEND'
RHS
    RHS       CON1      -0.000000     CON2      -0.000000   
    RHS       CON3      -0.000000     CON4      -0.000000   
    RHS       CON5      -0.000000     CON6      -0.000000   
    RHS       CON7      -0.000000     CON8      -0.000000   
    RHS       CON9      -0.000000     CON10     -0.000000   
    RHS       CON11     -0.000000     CON12     -0.000000   
    RHS       CON13     1.000000      CON14     1.000000    
    RHS       CON15     1.000000      CON16     1.000000    
    RHS       CON17     1.000000      CON18     1.000000    
    RHS       CON19     1.000000      CON20     1.000000    
BOUNDS
 BV BOUND     u[1,1]  
 BV BOUND     u[1,2]  
 BV BOUND     u[2,1]  
 BV BOUND     u[2,2]  
 BV BOUND     u[3,1]  
 BV BOUND     u[3,2]  
 BV BOUND     y[1,1,1]
 BV BOUND     y[1,1,2]
 BV BOUND     y[1,2,1]
 BV BOUND     y[1,2,2]
 BV BOUND     y[1,3,1]
 BV BOUND     y[1,3,2]
 BV BOUND     y[1,4,1]
 BV BOUND     y[1,4,2]
 BV BOUND     y[2,1,1]
 BV BOUND     y[2,1,2]
 BV BOUND     y[2,2,1]
 BV BOUND     y[2,2,2]
 BV BOUND     y[2,3,1]
 BV BOUND     y[2,3,2]
 BV BOUND     y[2,4,1]
 BV BOUND     y[2,4,2]
 BV BOUND     y[3,1,1]
 BV BOUND     y[3,1,2]
 BV BOUND     y[3,2,1]
 BV BOUND     y[3,2,2]
 BV BOUND     y[3,3,1]
 BV BOUND     y[3,3,2]
 BV BOUND     y[3,4,1]
 BV BOUND     y[3,4,2]
 BV BOUND     z[1,1]  
 BV BOUND     z[1,2]  
 BV BOUND     z[2,1]  
 BV BOUND     z[2,2]  
 BV BOUND     z[3,1]  
 BV BOUND     z[3,2]  
 BV BOUND     z[4,1]  
 BV BOUND     z[4,2]  
ENDATA
